letting n =  10
letting blocks =  [[1, 1], [1, 3], [1, 4], [1, 6], [1, 8], [1, 9], [2, 1], [2, 4], [2, 5], [2, 7], [2, 8], [3, 1], [3, 2], [3, 3], [3, 4], [3, 5], [3, 9], [4, 7], [4, 8], [4, 10], [5, 1], [5, 2], [5, 4], [5, 5], [5, 9], [5, 10], [6, 2], [6, 3], [6, 5], [6, 6], [6, 7], [6, 9], [7, 2], [7, 3], [7, 4], [7, 6], [7, 7], [7, 8], [8, 1], [8, 2], [8, 4], [8, 7], [8, 8], [8, 9], [9, 7], [9, 9], [9, 10], [10, 1], [10, 2], [10, 5], [10, 6], [10, 8]]
